33D32945 STP File, STP Format Version 1.0

SECTION Comment
Name "lin08-5s"
Creator "Bernd Zey"
Problem "Stochastic Steiner Tree Problem"
# Stochastic Steiner tree problem instance, base file: lin08.stp
# weight-scaling off
# parameters:
# distribution=equal
# selectRootRandomly=0
# probabilityTerminal=33
# probabilityNonTerminal=5
# 2nd stage edge-costs in [1.1000c_e, 1.3000c_e]
END

SECTION Graph
Nodes 311
Edges 530
Scenarios 5
Root 55
E 1 56 162
E 1 19 53
E 2 72 46
E 2 222 14
E 2 144 106
E 3 230 46
E 3 231 6
E 3 8 40
E 4 47 82
E 4 197 6
E 4 124 130
E 4 198 40
E 5 53 50
E 5 42 116
E 5 59 120
E 6 263 90
E 6 9 40
E 6 14 20
E 6 180 148
E 7 193 52
E 7 270 152
E 7 186 4
E 7 18 30
E 8 196 46
E 8 302 124
E 9 112 6
E 9 47 20
E 10 50 128
E 10 183 80
E 10 303 50
E 11 128 76
E 11 67 18
E 11 209 90
E 11 154 96
E 12 231 106
E 12 85 194
E 12 274 170
E 13 237 14
E 13 84 20
E 13 140 52
E 14 47 40
E 14 198 82
E 14 296 148
E 15 290 22
E 15 164 178
E 15 193 46
E 15 61 34
E 16 209 10
E 16 51 18
E 16 298 42
E 16 129 96
E 17 91 142
E 17 264 88
E 17 152 54
E 17 29 78
E 18 240 4
E 18 190 46
E 19 64 115
E 20 217 28
E 20 241 182
E 20 289 158
E 20 114 58
E 21 266 46
E 21 211 124
E 21 96 88
E 22 162 114
E 22 37 88
E 22 105 14
E 23 69 28
E 23 287 14
E 23 238 46
E 24 27 100
E 24 196 124
E 24 302 46
E 24 132 194
E 25 301 14
E 25 217 58
E 25 114 28
E 25 267 68
E 26 220 8
E 26 143 14
E 26 285 42
E 26 173 46
E 27 197 130
E 27 221 124
E 27 124 6
E 28 214 166
E 28 206 10
E 28 269 52
E 29 94 54
E 29 250 26
E 30 44 66
E 30 215 34
E 30 239 92
E 30 163 130
E 31 167 28
E 31 206 166
E 31 214 10
E 32 203 54
E 32 172 52
E 32 67 76
E 32 128 18
E 33 133 74
E 33 244 182
E 33 160 166
E 33 148 58
E 34 170 90
E 34 59 46
E 34 182 72
E 35 277 14
E 35 297 12
E 35 42 52
E 36 306 50
E 36 229 52
E 36 56 32
E 37 294 114
E 37 180 66
E 38 178 52
E 38 179 76
E 38 284 22
E 39 304 31
E 39 49 43
E 40 172 76
E 40 45 14
E 40 192 90
E 40 67 52
E 41 188 142
E 41 184 182
E 42 177 120
E 43 107 58
E 43 126 56
E 43 306 58
E 43 102 32
E 44 134 76
E 44 89 34
E 44 261 130
E 45 235 76
E 45 130 154
E 45 63 90
E 46 245 14
E 46 181 10
E 46 156 28
E 47 110 6
E 48 281 14
E 48 241 28
E 48 217 182
E 49 308 66
E 49 143 8
E 49 220 14
E 50 92 92
E 50 115 80
E 51 307 10
E 51 72 52
E 51 71 42
E 52 54 66
E 52 195 12
E 52 68 62
E 53 242 8
E 53 75 46
E 54 73 4
E 54 165 12
E 55 86 115
E 55 295 55
E 56 102 108
E 57 295 64
E 57 299 74
E 57 288 10
E 58 310 37
E 58 96 78
E 58 262 26
E 59 177 116
E 60 291 8
E 60 199 10
E 60 176 47
E 61 70 22
E 61 168 46
E 61 191 130
E 62 151 10
E 62 291 66
E 62 113 68
E 63 218 154
E 63 205 10
E 63 192 14
E 64 97 110
E 64 127 166
E 65 74 90
E 65 87 22
E 65 155 58
E 66 286 194
E 66 243 100
E 66 157 6
E 67 307 90
E 68 252 12
E 68 131 42
E 68 208 80
E 69 95 80
E 69 159 14
E 69 141 46
E 70 239 8
E 70 290 34
E 70 123 130
E 71 127 110
E 71 298 18
E 72 192 10
E 72 205 14
E 73 190 12
E 73 254 76
E 74 284 76
E 74 179 22
E 75 135 8
E 75 170 80
E 75 106 12
E 76 119 54
E 76 101 182
E 76 133 170
E 76 79 58
E 77 120 120
E 77 264 142
E 77 91 88
E 78 284 58
E 78 126 58
E 78 107 56
E 79 234 54
E 79 251 170
E 79 86 68
E 80 91 104
E 80 225 76
E 80 147 178
E 81 84 82
E 81 109 14
E 81 172 54
E 81 203 52
E 82 267 28
E 82 114 68
E 82 136 48
E 82 311 64
E 83 90 54
E 83 130 76
E 83 235 154
E 84 210 14
E 84 260 52
E 85 99 106
E 86 194 54
E 86 266 120
E 87 179 90
E 87 282 52
E 87 118 10
E 88 292 114
E 88 107 132
E 88 175 32
E 89 147 76
E 89 225 178
E 89 215 66
E 90 296 82
E 90 198 148
E 90 109 154
E 92 122 66
E 92 255 80
E 93 300 28
E 93 293 134
E 93 287 66
E 94 152 78
E 94 310 9
E 95 285 8
E 95 268 14
E 96 152 46
E 97 118 42
E 97 272 52
E 98 250 92
E 98 262 8
E 98 248 178
E 99 153 46
E 99 231 194
E 100 204 8
E 100 106 80
E 100 300 80
E 100 268 66
E 101 188 54
E 101 117 170
E 102 125 58
E 103 295 74
E 103 148 68
E 103 202 166
E 103 299 64
E 104 166 20
E 104 260 18
E 104 258 82
E 105 297 114
E 105 253 52
E 106 131 8
E 106 224 80
E 107 125 32
E 108 299 166
E 108 202 64
E 108 181 14
E 108 245 10
E 109 210 82
E 109 235 54
E 110 112 20
E 110 246 124
E 110 197 82
E 111 216 50
E 111 308 74
E 111 304 66
E 112 189 124
E 113 142 70
E 114 249 48
E 115 255 92
E 115 233 70
E 115 183 128
E 116 271 40
E 116 157 130
E 116 174 40
E 117 244 74
E 117 133 182
E 118 129 52
E 119 184 142
E 119 188 182
E 119 234 58
E 120 150 68
E 120 194 142
E 121 138 62
E 121 259 30
E 121 242 42
E 121 252 46
E 122 146 76
E 122 278 80
E 123 233 8
E 123 191 22
E 124 130 188
E 125 175 132
E 126 169 58
E 127 144 52
E 128 258 54
E 128 178 96
E 129 282 10
E 129 272 42
E 130 218 90
E 131 135 12
E 131 204 80
E 132 218 10
E 132 137 46
E 132 205 154
E 133 251 58
E 134 147 34
E 134 273 130
E 135 252 42
E 135 242 46
E 136 249 68
E 136 200 64
E 137 302 194
E 137 201 106
E 137 222 154
E 138 240 66
E 138 309 30
E 138 195 46
E 139 289 18
E 139 271 42
E 139 246 40
E 140 260 20
E 140 166 18
E 141 171 88
E 141 238 28
E 142 213 4
E 142 161 66
E 142 228 26
E 143 208 66
E 143 185 42
E 144 149 14
E 145 151 66
E 145 199 8
E 145 291 10
E 146 276 80
E 148 251 74
E 148 301 166
E 149 222 106
E 149 201 154
E 150 184 58
E 150 234 142
E 151 211 44
E 152 266 88
E 153 286 100
E 153 243 194
E 154 178 76
E 154 282 90
E 154 179 52
E 155 219 32
E 155 229 4
E 156 206 14
E 156 263 76
E 157 230 100
E 157 221 40
E 158 289 42
E 158 279 182
E 158 271 18
E 159 268 80
E 159 300 66
E 159 287 28
E 160 281 182
E 160 217 14
E 160 301 58
E 161 291 138
E 161 256 62
E 161 232 26
E 162 277 12
E 162 294 88
E 162 297 14
E 163 261 66
E 163 233 92
E 163 255 70
E 164 262 22
E 164 213 98
E 165 190 4
E 165 240 46
E 165 195 66
E 166 182 78
E 167 288 74
E 167 299 10
E 167 245 166
E 168 193 34
E 168 226 130
E 169 219 18
E 169 306 56
E 170 224 12
E 171 173 42
E 171 285 46
E 172 235 14
E 173 227 8
E 174 246 82
E 174 221 130
E 174 197 124
E 175 223 158
E 176 257 75
E 177 253 6
E 178 207 132
E 180 296 20
E 180 237 154
E 181 267 64
E 181 311 28
E 182 212 18
E 183 216 66
E 183 304 50
E 185 204 66
E 185 268 8
E 185 285 14
E 186 228 152
E 186 309 66
E 186 240 30
E 187 227 8
E 187 283 12
E 189 249 90
E 189 246 20
E 191 226 46
E 192 307 52
E 194 234 68
E 194 264 120
E 195 252 62
E 196 221 100
E 196 230 40
E 199 214 52
E 199 275 122
E 200 311 48
E 200 263 38
E 201 274 194
E 202 301 68
E 202 267 14
E 203 260 82
E 203 258 18
E 204 208 42
E 205 222 46
E 206 245 28
E 207 212 24
E 207 292 74
E 208 308 8
E 209 307 18
E 209 282 96
E 210 237 20
E 210 296 154
E 211 247 41
E 212 293 74
E 213 270 26
E 215 250 178
E 215 248 92
E 216 254 4
E 220 227 46
E 223 283 166
E 223 238 20
E 224 300 80
E 225 250 66
E 226 254 52
E 228 270 4
E 228 232 66
E 230 243 6
E 231 243 46
E 232 280 62
E 232 309 152
E 233 239 130
E 236 256 68
E 236 257 138
E 236 265 26
E 237 253 66
E 239 248 34
E 241 305 158
E 244 281 166
E 247 288 5
E 248 290 8
E 251 295 68
E 255 278 66
E 256 280 26
E 257 275 10
E 259 309 62
E 259 280 152
E 261 273 76
E 261 278 70
E 262 290 178
E 264 266 54
E 265 280 68
E 265 277 32
E 269 275 44
E 269 294 86
E 272 298 96
E 273 276 70
E 274 302 106
E 276 278 76
E 279 305 42
E 279 286 170
E 283 303 74
E 289 305 182
E 292 293 24
E 303 304 80
END

SECTION StochasticProbabilities
SP 0.22730 0.18190 0.18180 0.11360 0.29540
END

SECTION StochasticWeights
SE 182 179 183 195 187 
SE 63 68 65 59 59 
SE 59 57 56 51 54 
SE 18 16 16 16 18 
SE 117 132 119 128 117 
SE 57 58 52 57 51 
SE 7 7 7 7 7 
SE 45 49 46 44 48 
SE 94 91 91 93 100 
SE 7 7 7 7 7 
SE 169 144 155 159 144 
SE 52 44 48 46 49 
SE 57 60 64 61 61 
SE 130 133 147 148 128 
SE 132 132 156 149 144 
SE 103 114 108 100 112 
SE 45 44 47 44 52 
SE 26 23 22 22 25 
SE 183 173 166 165 177 
SE 58 58 60 64 62 
SE 186 177 181 181 169 
SE 5 5 5 5 5 
SE 37 39 36 35 33 
SE 52 55 51 52 52 
SE 152 147 160 143 154 
SE 7 7 7 7 7 
SE 23 26 22 23 22 
SE 147 152 142 162 153 
SE 92 100 99 97 101 
SE 57 60 56 57 57 
SE 93 88 98 90 84 
SE 20 20 22 23 21 
SE 103 108 107 117 103 
SE 108 120 106 114 110 
SE 137 137 132 119 126 
SE 249 241 229 243 242 
SE 212 200 217 191 205 
SE 18 16 16 17 16 
SE 23 23 25 26 24 
SE 64 66 58 63 59 
SE 47 50 48 49 46 
SE 102 91 91 96 103 
SE 183 181 187 167 181 
SE 27 25 25 25 26 
SE 200 221 211 221 197 
SE 58 51 59 52 55 
SE 41 40 43 43 40 
SE 13 12 12 12 13 
SE 21 23 20 20 20 
SE 54 47 48 54 47 
SE 121 113 117 107 106 
SE 178 174 177 174 183 
SE 113 111 97 103 107 
SE 60 68 60 66 62 
SE 100 86 93 98 95 
SE 5 5 5 5 5 
SE 58 51 51 55 51 
SE 128 138 149 135 127 
SE 31 31 33 31 32 
SE 222 215 217 229 236 
SE 191 183 201 201 199 
SE 68 64 69 64 70 
SE 53 51 55 55 51 
SE 143 142 150 153 146 
SE 106 109 98 106 108 
SE 136 142 137 127 147 
SE 99 108 101 109 112 
SE 18 17 16 18 16 
SE 36 31 32 32 31 
SE 16 18 17 17 17 
SE 53 51 53 57 54 
SE 113 121 122 119 122 
SE 137 143 137 157 141 
SE 53 56 51 54 56 
SE 214 246 246 222 242 
SE 16 16 17 16 16 
SE 75 68 72 70 72 
SE 31 33 33 31 35 
SE 78 76 80 75 81 
SE 9 9 9 9 9 
SE 16 18 16 16 16 
SE 49 54 48 49 52 
SE 58 56 52 52 55 
SE 145 165 159 148 159 
SE 160 159 157 157 156 
SE 7 7 7 7 7 
SE 189 194 191 206 210 
SE 11 12 11 12 13 
SE 67 60 59 59 61 
SE 61 64 62 62 65 
SE 33 32 29 29 31 
SE 85 80 73 76 82 
SE 40 42 38 41 40 
SE 112 116 108 114 106 
SE 148 164 169 153 148 
SE 32 33 36 35 31 
SE 198 214 187 194 196 
SE 13 13 13 11 11 
SE 65 65 66 65 61 
SE 58 60 62 58 65 
SE 92 95 87 91 89 
SE 21 21 20 21 21 
SE 96 86 87 86 82 
SE 214 210 224 231 228 
SE 193 214 208 185 193 
SE 75 75 73 69 65 
SE 107 116 105 116 115 
SE 58 51 58 52 51 
SE 82 83 89 80 82 
SE 18 16 16 16 18 
SE 14 14 14 15 14 
SE 65 67 58 63 59 
SE 60 61 56 60 58 
SE 62 62 58 60 65 
SE 36 36 41 38 41 
SE 139 135 128 144 126 
SE 78 81 85 80 77 
SE 64 60 65 65 58 
SE 89 92 84 91 85 
SE 28 25 27 25 28 
SE 37 39 35 37 35 
SE 49 55 53 49 52 
SE 98 96 85 90 98 
SE 18 18 16 16 18 
SE 112 114 111 106 106 
SE 60 62 63 62 58 
SE 184 179 162 168 157 
SE 220 236 207 201 224 
SE 151 139 153 134 152 
SE 70 70 75 70 64 
SE 72 67 62 69 69 
SE 67 66 75 65 65 
SE 36 41 36 39 38 
SE 93 90 93 85 84 
SE 40 41 42 43 43 
SE 168 146 146 144 144 
SE 93 97 85 92 91 
SE 190 185 179 195 170 
SE 114 108 105 117 106 
SE 18 17 16 18 16 
SE 12 13 11 11 12 
SE 36 34 31 35 36 
SE 7 7 7 7 7 
SE 16 16 17 18 16 
SE 36 31 34 31 35 
SE 227 210 205 217 204 
SE 80 78 75 79 80 
SE 9 9 9 10 10 
SE 18 16 16 18 18 
SE 108 113 112 108 119 
SE 100 101 94 99 89 
SE 12 13 12 12 13 
SE 66 61 60 59 62 
SE 52 52 51 52 47 
SE 79 75 78 78 80 
SE 14 15 14 14 14 
SE 70 74 69 79 78 
SE 9 9 9 9 10 
SE 51 55 57 55 53 
SE 5 5 5 5 5 
SE 15 14 14 14 14 
SE 138 127 137 132 141 
SE 71 63 71 62 62 
SE 139 134 125 120 131 
SE 80 72 76 72 75 
SE 83 93 94 93 89 
SE 12 13 13 11 11 
SE 42 48 41 43 45 
SE 89 95 100 100 88 
SE 30 30 30 30 32 
SE 134 136 136 135 145 
SE 10 9 10 9 9 
SE 11 13 11 13 13 
SE 54 52 55 61 52 
SE 25 27 25 25 25 
SE 51 55 58 57 51 
SE 160 167 160 159 159 
SE 11 12 11 11 12 
SE 76 83 77 76 79 
SE 75 88 75 83 88 
SE 185 198 180 188 181 
SE 11 12 11 13 13 
SE 16 17 17 16 17 
SE 134 134 131 138 139 
SE 188 193 211 192 190 
SE 115 104 102 110 115 
SE 27 28 25 26 25 
SE 70 67 75 69 70 
SE 234 236 231 242 228 
SE 117 114 111 121 128 
SE 7 7 7 7 7 
SE 105 110 114 101 105 
SE 14 14 15 15 14 
SE 50 54 54 48 52 
SE 88 89 104 91 99 
SE 99 98 92 104 103 
SE 16 16 16 17 16 
SE 57 53 51 57 55 
SE 9 10 9 9 9 
SE 42 38 42 41 44 
SE 156 169 152 169 144 
SE 138 130 127 127 138 
SE 23 20 23 23 20 
SE 12 13 11 12 12 
SE 16 16 16 17 16 
SE 14 15 15 14 14 
SE 88 87 97 98 85 
SE 88 93 90 94 92 
SE 25 27 25 25 25 
SE 9 9 9 9 9 
SE 93 93 92 104 97 
SE 14 15 15 14 14 
SE 64 60 66 68 65 
SE 210 207 225 201 232 
SE 202 194 197 211 204 
SE 73 68 75 68 72 
SE 150 151 150 145 133 
SE 182 176 157 179 182 
SE 97 109 108 110 97 
SE 64 65 65 73 72 
SE 64 65 65 68 64 
SE 67 69 68 68 72 
SE 69 63 69 63 70 
SE 211 200 190 220 220 
SE 79 76 75 77 86 
SE 130 125 120 117 123 
SE 86 86 87 84 86 
SE 203 211 204 214 211 
SE 99 92 97 93 103 
SE 17 17 17 18 17 
SE 66 60 61 70 62 
SE 64 58 62 61 60 
SE 36 33 31 36 32 
SE 79 82 77 75 75 
SE 56 53 55 55 60 
SE 75 72 82 76 71 
SE 66 63 68 67 67 
SE 84 92 92 94 96 
SE 192 187 174 180 175 
SE 16 16 16 18 16 
SE 61 63 63 61 59 
SE 117 132 125 117 133 
SE 62 64 64 60 70 
SE 155 141 135 151 132 
SE 109 101 105 108 105 
SE 63 59 58 60 65 
SE 12 11 11 12 13 
SE 126 139 127 144 132 
SE 158 148 153 161 160 
SE 40 37 36 38 40 
SE 93 85 98 95 89 
SE 221 220 231 216 209 
SE 73 85 82 74 83 
SE 91 105 103 91 103 
SE 175 191 174 192 169 
SE 194 200 181 170 174 
SE 84 73 82 73 84 
SE 99 101 92 93 90 
SE 33 32 33 32 36 
SE 170 150 158 150 153 
SE 73 73 73 84 76 
SE 91 99 90 91 93 
SE 11 10 10 10 10 
SE 9 9 9 9 9 
SE 17 16 18 18 17 
SE 59 58 57 57 56 
SE 52 54 54 49 48 
SE 58 60 67 60 58 
SE 114 105 109 116 107 
SE 9 9 9 10 10 
SE 223 223 225 222 211 
SE 55 55 57 55 56 
SE 250 220 247 248 248 
SE 10 9 9 9 9 
SE 98 89 101 104 90 
SE 98 103 104 93 101 
SE 73 73 77 80 76 
SE 63 63 66 70 61 
SE 206 188 206 214 215 
SE 74 72 73 72 67 
SE 95 82 82 85 82 
SE 86 81 87 86 78 
SE 197 184 212 204 183 
SE 71 78 78 74 72 
SE 26 26 26 25 22 
SE 23 22 20 20 22 
SE 93 101 91 95 91 
SE 130 132 127 136 138 
SE 59 65 59 59 58 
SE 10 9 9 10 10 
SE 95 88 102 95 91 
SE 40 39 40 36 37 
SE 188 194 195 203 200 
SE 74 74 76 74 78 
SE 16 16 16 16 16 
SE 13 12 11 12 11 
SE 96 92 106 91 96 
SE 61 60 65 65 69 
SE 22 22 22 23 24 
SE 147 137 156 158 160 
SE 96 104 93 104 96 
SE 62 56 61 56 56 
SE 93 92 92 90 83 
SE 78 76 74 78 81 
SE 146 152 151 158 142 
SE 84 80 91 89 82 
SE 61 61 53 59 62 
SE 108 108 118 103 108 
SE 77 90 81 88 85 
SE 165 161 143 141 163 
SE 47 47 52 44 47 
SE 164 159 149 144 158 
SE 50 48 44 51 46 
SE 87 91 93 93 84 
SE 202 230 204 223 221 
SE 63 67 60 62 66 
SE 182 173 163 172 168 
SE 236 222 228 201 229 
SE 67 70 64 64 75 
SE 78 81 78 87 75 
SE 175 174 162 167 157 
SE 76 69 79 69 78 
SE 35 38 37 35 34 
SE 51 47 53 47 50 
SE 56 51 53 51 57 
SE 84 84 97 95 92 
SE 90 104 100 99 88 
SE 10 9 10 9 9 
SE 28 28 25 25 25 
SE 213 229 213 229 224 
SE 146 161 165 152 158 
SE 70 72 64 73 64 
SE 59 67 59 65 64 
SE 68 69 69 60 61 
SE 116 119 116 111 119 
SE 11 13 12 12 11 
SE 54 47 50 54 48 
SE 104 109 101 107 100 
SE 14 14 14 15 15 
SE 92 96 96 89 100 
SE 12 13 13 11 11 
SE 52 51 52 58 51 
SE 182 170 177 170 186 
SE 66 67 67 67 75 
SE 38 40 38 41 38 
SE 168 156 155 166 150 
SE 47 53 49 53 52 
SE 51 59 51 52 51 
SE 82 87 77 79 77 
SE 81 81 79 80 78 
SE 233 244 234 223 223 
SE 137 137 117 126 117 
SE 195 172 193 189 175 
SE 80 81 79 81 73 
SE 33 38 36 34 38 
SE 51 52 57 56 57 
SE 20 22 20 23 20 
SE 49 53 51 53 52 
SE 46 44 52 48 50 
SE 24 26 22 26 25 
SE 23 23 21 21 23 
SE 97 110 107 97 107 
SE 34 34 31 31 34 
SE 5 5 5 5 5 
SE 83 74 73 76 79 
SE 29 33 32 29 32 
SE 81 73 85 76 74 
SE 50 54 50 47 49 
SE 17 17 17 17 16 
SE 79 74 84 74 81 
SE 10 10 9 9 10 
SE 12 12 13 12 13 
SE 91 95 103 102 94 
SE 85 83 87 85 91 
SE 185 183 206 188 188 
SE 122 129 129 120 121 
SE 197 200 184 183 170 
SE 64 64 75 67 72 
SE 183 167 158 184 169 
SE 53 50 49 49 50 
SE 104 110 101 107 100 
SE 111 118 120 127 129 
SE 232 220 248 222 215 
SE 84 91 87 94 84 
SE 100 116 102 111 110 
SE 67 61 64 65 63 
SE 37 36 40 38 38 
SE 5 5 5 5 5 
SE 17 16 16 16 16 
SE 88 98 89 95 84 
SE 114 113 117 129 123 
SE 48 50 47 46 45 
SE 48 53 47 49 50 
SE 211 229 231 214 210 
SE 20 22 20 22 23 
SE 103 93 95 89 89 
SE 83 76 79 84 73 
SE 32 31 36 34 32 
SE 205 203 233 224 204 
SE 18 16 16 16 16 
SE 69 69 75 74 68 
SE 175 175 166 152 160 
SE 71 69 74 74 80 
SE 31 30 30 30 32 
SE 15 14 14 14 14 
SE 111 102 101 105 106 
SE 18 18 16 16 16 
SE 78 77 83 74 79 
SE 115 117 107 115 109 
SE 81 77 88 77 86 
SE 28 25 26 27 26 
SE 109 117 115 123 112 
SE 5 5 5 5 5 
SE 53 55 52 54 51 
SE 73 75 85 75 82 
SE 99 101 92 86 86 
SE 89 90 89 87 87 
SE 11 11 11 12 11 
SE 190 193 213 193 209 
SE 39 40 38 40 40 
SE 149 160 151 166 146 
SE 21 20 21 20 21 
SE 63 64 68 71 68 
SE 15 14 14 14 14 
SE 52 54 51 53 53 
SE 55 51 53 56 56 
SE 16 18 18 16 16 
SE 9 10 10 9 9 
SE 104 93 105 97 92 
SE 168 160 167 152 147 
SE 141 143 155 142 155 
SE 199 180 200 183 187 
SE 84 95 87 84 92 
SE 7 7 7 7 7 
SE 162 147 166 155 169 
SE 25 26 25 23 22 
SE 181 180 200 190 181 
SE 75 81 77 81 83 
SE 34 34 31 31 32 
SE 20 21 21 20 22 
SE 75 79 76 84 79 
SE 59 59 60 58 62 
SE 83 84 75 82 73 
SE 9 10 10 10 9 
SE 17 17 18 18 17 
SE 175 173 184 172 182 
SE 76 73 82 73 85 
SE 38 34 37 38 39 
SE 9 9 9 9 9 
SE 15 14 14 14 14 
SE 112 105 111 104 116 
SE 24 24 26 26 26 
SE 55 57 56 59 56 
SE 58 61 59 59 64 
SE 84 83 75 75 76 
SE 156 134 147 151 135 
SE 80 78 79 80 74 
SE 118 130 120 118 121 
SE 52 52 48 45 48 
SE 58 62 64 66 64 
SE 146 146 145 154 135 
SE 53 60 56 62 57 
SE 44 45 49 42 46 
SE 224 237 224 247 243 
SE 85 83 86 80 84 
SE 16 16 18 17 17 
SE 106 103 99 98 96 
SE 20 20 20 22 23 
SE 51 51 47 54 49 
SE 57 59 58 52 58 
SE 31 31 34 34 32 
SE 27 27 28 30 31 
SE 93 91 83 82 95 
SE 9 10 9 10 9 
SE 20 20 21 20 20 
SE 119 110 114 122 117 
SE 22 24 23 26 25 
SE 188 197 193 182 197 
SE 53 49 49 49 46 
SE 85 93 82 82 82 
SE 32 31 31 29 29 
SE 217 209 201 217 196 
SE 112 112 108 118 110 
SE 5 5 5 5 5 
SE 58 52 57 59 59 
SE 206 204 215 185 201 
SE 25 25 23 24 25 
SE 100 95 97 96 93 
SE 80 78 84 84 83 
SE 67 58 60 58 58 
SE 5 5 5 5 5 
SE 85 79 83 82 75 
SE 7 7 7 7 7 
SE 52 56 59 56 51 
SE 71 79 76 72 71 
SE 180 168 195 181 178 
SE 163 152 162 146 168 
SE 77 87 75 76 77 
SE 167 174 177 157 172 
SE 32 32 29 29 29 
SE 84 81 75 85 80 
SE 38 38 39 43 42 
SE 200 204 191 205 198 
SE 188 194 190 197 197 
SE 6 6 6 6 6 
SE 9 10 10 9 10 
SE 88 82 81 80 87 
SE 77 85 79 75 81 
SE 33 33 30 32 32 
SE 12 11 12 12 11 
SE 71 77 80 74 77 
SE 172 183 192 189 175 
SE 97 95 92 84 87 
SE 80 77 82 77 87 
SE 212 199 197 215 207 
SE 60 65 62 62 70 
SE 77 75 87 75 87 
SE 41 39 36 36 38 
SE 51 52 56 57 51 
SE 107 102 95 95 101 
SE 124 123 113 114 110 
SE 81 82 84 78 77 
SE 118 133 118 126 128 
SE 86 94 97 96 87 
SE 47 49 48 47 48 
SE 193 191 194 215 202 
SE 83 86 95 90 89 
SE 205 210 221 202 224 
SE 27 27 27 27 27 
SE 93 96 103 101 102 
END

SECTION StochasticTerminals
ST 1 0 0 0 0 0 
ST 2 0 0 0 0 0 
ST 3 0 0 0 0 0 
ST 4 0 0 0 0 0 
ST 5 0 0 0 0 0 
ST 6 0 0 0 1 0 
ST 7 0 0 0 0 0 
ST 8 0 0 0 0 0 
ST 9 0 0 0 0 0 
ST 10 0 0 0 0 0 
ST 11 0 0 1 0 0 
ST 12 0 0 0 0 0 
ST 13 0 1 0 0 0 
ST 14 0 0 0 0 0 
ST 15 0 0 1 0 0 
ST 16 0 0 0 0 0 
ST 17 0 0 0 0 0 
ST 18 0 0 0 0 0 
ST 19 0 1 1 0 0 
ST 20 0 0 0 0 0 
ST 21 0 0 0 0 1 
ST 22 0 0 0 0 0 
ST 23 1 0 0 0 0 
ST 24 0 0 0 0 0 
ST 25 0 0 0 0 0 
ST 26 0 0 0 0 0 
ST 27 0 0 0 0 0 
ST 28 0 0 0 0 1 
ST 29 0 0 0 0 0 
ST 30 0 0 0 0 0 
ST 31 1 0 0 0 1 
ST 32 0 0 0 0 0 
ST 33 0 0 0 0 0 
ST 34 0 0 0 0 0 
ST 35 0 0 0 0 0 
ST 36 1 0 0 0 0 
ST 37 0 0 0 0 0 
ST 38 0 0 0 0 0 
ST 39 0 1 0 0 0 
ST 40 0 0 0 1 0 
ST 41 1 0 0 0 0 
ST 42 0 0 0 0 0 
ST 43 0 0 0 0 0 
ST 44 0 0 0 0 0 
ST 45 0 0 0 0 0 
ST 46 1 0 0 0 0 
ST 47 0 0 0 0 0 
ST 48 0 0 0 0 0 
ST 49 0 0 0 1 0 
ST 50 0 0 0 0 0 
ST 51 0 0 0 0 0 
ST 52 0 0 0 0 0 
ST 53 0 0 0 0 0 
ST 54 0 0 0 0 0 
ST 55 1 1 1 1 1 
ST 56 1 0 0 0 0 
ST 57 0 0 0 0 0 
ST 58 0 0 0 0 0 
ST 59 0 0 0 0 0 
ST 60 0 0 0 0 0 
ST 61 1 1 0 0 0 
ST 62 0 1 0 0 0 
ST 63 0 0 0 0 0 
ST 64 0 0 0 0 0 
ST 65 0 0 0 0 0 
ST 66 0 0 0 0 0 
ST 67 1 0 0 0 0 
ST 68 0 0 0 0 0 
ST 69 0 0 0 0 0 
ST 70 0 0 0 0 0 
ST 71 0 0 0 0 0 
ST 72 0 0 0 0 0 
ST 73 0 0 0 0 0 
ST 74 0 0 0 0 0 
ST 75 0 0 0 1 0 
ST 76 0 0 0 0 0 
ST 77 1 0 0 0 0 
ST 78 0 0 0 0 0 
ST 79 0 0 0 0 0 
ST 80 0 0 0 0 0 
ST 81 0 0 0 0 0 
ST 82 0 0 0 0 0 
ST 83 0 0 0 0 0 
ST 84 0 0 1 0 0 
ST 85 0 0 0 0 0 
ST 86 0 0 0 0 0 
ST 87 0 0 0 0 0 
ST 88 0 0 0 0 0 
ST 89 0 0 0 0 0 
ST 90 0 0 0 0 0 
ST 91 0 0 0 0 1 
ST 92 0 0 0 0 0 
ST 93 0 0 0 0 0 
ST 94 0 0 1 0 0 
ST 95 0 0 0 1 0 
ST 96 0 0 0 0 0 
ST 97 0 0 0 0 0 
ST 98 0 0 0 0 0 
ST 99 0 0 0 0 0 
ST 100 0 0 0 0 0 
ST 101 0 0 0 1 0 
ST 102 0 0 0 0 0 
ST 103 1 0 0 0 0 
ST 104 0 0 0 0 0 
ST 105 0 0 0 0 0 
ST 106 0 0 0 0 0 
ST 107 0 0 0 0 0 
ST 108 0 0 0 0 1 
ST 109 0 1 0 0 0 
ST 110 0 0 0 0 0 
ST 111 0 0 0 0 0 
ST 112 0 1 0 0 0 
ST 113 0 0 0 0 0 
ST 114 0 0 0 0 1 
ST 115 0 0 0 0 0 
ST 116 0 0 0 0 0 
ST 117 0 0 0 0 1 
ST 118 0 0 1 0 0 
ST 119 0 0 0 0 0 
ST 120 0 0 0 0 0 
ST 121 0 0 0 0 0 
ST 122 0 0 0 0 0 
ST 123 0 0 0 0 0 
ST 124 0 0 0 0 0 
ST 125 0 0 0 0 0 
ST 126 0 0 0 0 0 
ST 127 0 0 0 0 0 
ST 128 0 0 0 0 0 
ST 129 0 0 0 0 0 
ST 130 0 0 0 0 0 
ST 131 0 0 0 0 0 
ST 132 0 0 0 0 0 
ST 133 0 0 0 0 0 
ST 134 0 0 0 0 0 
ST 135 0 0 0 0 0 
ST 136 0 0 0 0 0 
ST 137 0 0 0 0 0 
ST 138 0 0 0 0 0 
ST 139 0 0 0 0 0 
ST 140 0 0 0 0 0 
ST 141 0 0 0 0 0 
ST 142 0 0 0 0 0 
ST 143 0 0 0 0 0 
ST 144 0 0 0 0 0 
ST 145 0 0 0 0 0 
ST 146 0 1 0 0 0 
ST 147 0 0 0 0 0 
ST 148 0 0 0 0 0 
ST 149 1 0 0 1 0 
ST 150 0 0 0 1 0 
ST 151 0 0 0 0 0 
ST 152 0 0 0 0 0 
ST 153 0 0 0 0 0 
ST 154 0 0 0 0 0 
ST 155 0 0 0 0 0 
ST 156 0 0 0 0 0 
ST 157 0 0 0 0 0 
ST 158 0 0 0 0 0 
ST 159 0 0 0 0 0 
ST 160 0 1 0 0 0 
ST 161 0 0 0 0 0 
ST 162 0 0 0 0 0 
ST 163 0 0 0 0 0 
ST 164 0 1 1 0 0 
ST 165 0 0 0 0 0 
ST 166 0 0 0 0 0 
ST 167 0 0 0 0 0 
ST 168 1 0 0 0 0 
ST 169 0 0 0 0 0 
ST 170 0 0 0 0 0 
ST 171 0 0 0 0 0 
ST 172 0 0 0 0 0 
ST 173 0 0 0 0 1 
ST 174 0 0 0 0 0 
ST 175 0 0 0 0 0 
ST 176 1 1 0 0 0 
ST 177 0 0 0 0 0 
ST 178 0 0 0 0 0 
ST 179 0 0 0 0 0 
ST 180 0 0 0 0 0 
ST 181 0 0 0 0 0 
ST 182 0 0 0 0 1 
ST 183 0 0 0 0 0 
ST 184 0 0 0 0 0 
ST 185 0 0 0 0 0 
ST 186 0 0 0 0 0 
ST 187 0 0 1 0 0 
ST 188 0 0 0 0 0 
ST 189 1 0 0 0 0 
ST 190 0 0 0 0 0 
ST 191 0 0 0 0 0 
ST 192 0 0 0 0 0 
ST 193 0 1 0 0 0 
ST 194 0 0 0 0 0 
ST 195 0 0 0 0 0 
ST 196 0 0 0 0 0 
ST 197 0 0 0 0 0 
ST 198 0 0 0 0 0 
ST 199 0 0 0 0 0 
ST 200 0 0 0 0 0 
ST 201 0 0 0 0 0 
ST 202 0 0 0 1 0 
ST 203 1 0 0 0 0 
ST 204 0 0 0 0 0 
ST 205 0 0 0 0 0 
ST 206 0 0 0 0 0 
ST 207 0 0 0 0 0 
ST 208 0 0 0 0 0 
ST 209 1 0 0 0 0 
ST 210 0 0 0 0 0 
ST 211 0 0 0 0 0 
ST 212 0 0 0 0 0 
ST 213 0 0 0 0 0 
ST 214 0 0 0 0 0 
ST 215 0 0 0 0 0 
ST 216 0 0 0 0 0 
ST 217 0 0 0 0 0 
ST 218 0 0 0 0 0 
ST 219 1 1 1 0 1 
ST 220 0 0 0 0 0 
ST 221 0 0 0 0 0 
ST 222 0 0 0 0 0 
ST 223 0 0 0 0 0 
ST 224 0 1 0 0 0 
ST 225 0 0 0 0 0 
ST 226 0 0 0 0 0 
ST 227 0 0 0 0 0 
ST 228 0 0 0 0 0 
ST 229 1 0 1 0 1 
ST 230 0 0 0 0 0 
ST 231 0 0 0 0 0 
ST 232 0 0 0 0 0 
ST 233 0 0 0 0 0 
ST 234 0 1 0 0 0 
ST 235 0 0 0 1 0 
ST 236 1 0 0 0 0 
ST 237 0 0 0 0 0 
ST 238 0 0 0 0 0 
ST 239 1 0 0 0 0 
ST 240 0 0 0 0 0 
ST 241 0 0 0 0 0 
ST 242 0 0 0 0 0 
ST 243 0 0 0 0 0 
ST 244 0 0 0 0 0 
ST 245 0 0 0 0 0 
ST 246 0 0 0 0 0 
ST 247 1 1 0 0 0 
ST 248 0 0 0 0 0 
ST 249 0 0 0 0 1 
ST 250 0 0 0 0 0 
ST 251 0 0 0 0 0 
ST 252 0 0 0 0 0 
ST 253 0 0 0 0 0 
ST 254 0 0 0 0 0 
ST 255 0 0 0 0 0 
ST 256 0 0 0 0 0 
ST 257 0 0 0 0 0 
ST 258 0 0 0 0 0 
ST 259 0 0 0 0 0 
ST 260 0 0 0 0 0 
ST 261 0 0 0 0 0 
ST 262 0 0 0 0 0 
ST 263 0 0 0 0 0 
ST 264 0 0 0 0 0 
ST 265 0 0 0 0 1 
ST 266 0 0 0 0 0 
ST 267 0 0 0 0 0 
ST 268 0 0 0 0 0 
ST 269 0 0 0 0 0 
ST 270 0 0 0 0 0 
ST 271 0 0 1 0 0 
ST 272 0 0 1 0 0 
ST 273 0 0 0 0 0 
ST 274 0 0 0 0 0 
ST 275 0 0 0 0 0 
ST 276 0 0 0 0 0 
ST 277 0 0 0 1 0 
ST 278 0 0 0 0 1 
ST 279 0 0 1 0 0 
ST 280 0 0 0 0 0 
ST 281 0 0 1 0 0 
ST 282 0 0 0 0 0 
ST 283 0 0 0 0 0 
ST 284 0 1 0 0 0 
ST 285 0 0 0 0 0 
ST 286 0 0 0 0 0 
ST 287 0 0 0 0 0 
ST 288 0 0 0 0 0 
ST 289 0 0 0 0 0 
ST 290 0 0 0 0 0 
ST 291 0 0 0 0 0 
ST 292 0 0 0 0 1 
ST 293 0 0 0 0 0 
ST 294 0 0 0 0 0 
ST 295 0 0 0 0 0 
ST 296 0 0 0 0 0 
ST 297 0 0 0 0 1 
ST 298 0 0 0 0 0 
ST 299 0 0 0 0 0 
ST 300 0 0 0 0 0 
ST 301 0 0 0 0 0 
ST 302 0 0 1 0 0 
ST 303 0 0 0 0 0 
ST 304 0 0 0 0 0 
ST 305 0 0 0 0 1 
ST 306 0 0 1 0 0 
ST 307 0 1 0 0 0 
ST 308 0 0 0 0 0 
ST 309 0 0 0 0 0 
ST 310 1 1 0 0 1 
ST 311 0 0 0 0 0 
END


SECTION Coordinates
DD 1 0 0
DD 2 386 106
DD 3 912 106
DD 4 742 382
DD 5 284 676
DD 6 702 484
DD 7 314 908
DD 8 872 106
DD 9 742 484
DD 10 0 908
DD 11 316 252
DD 12 918 0
DD 13 386 484
DD 14 702 464
DD 15 314 1006
DD 16 316 152
DD 17 596 1128
DD 18 284 908
DD 19 53 0
DD 20 930 622
DD 21 684 1028
DD 22 466 550
DD 23 66 618
DD 24 748 152
DD 25 872 650
DD 26 66 776
DD 27 748 252
DD 28 692 664
DD 29 518 1128
DD 30 280 1128
DD 31 702 830
DD 32 334 328
DD 33 930 830
DD 34 238 556
DD 35 452 676
DD 36 32 162
DD 37 554 550
DD 38 168 328
DD 39 80 827
DD 40 386 252
DD 41 1112 1270
DD 42 400 676
DD 43 32 270
DD 44 280 1194
DD 45 400 252
DD 46 730 650
DD 47 742 464
DD 48 1112 650
DD 49 80 784
DD 50 0 1036
DD 51 334 152
DD 52 226 838
DD 53 284 726
DD 54 226 904
DD 55 804 959
DD 56 0 162
DD 57 740 904
DD 58 518 1028
DD 59 284 556
DD 60 630 830
DD 61 280 1006
DD 62 630 904
DD 63 400 162
DD 64 168 0
DD 65 146 162
DD 66 918 252
DD 67 334 252
DD 68 226 776
DD 69 66 646
DD 70 280 1028
DD 71 334 110
DD 72 386 152
DD 73 226 908
DD 74 146 252
DD 75 238 726
DD 76 930 1074
DD 77 684 1270
DD 78 88 328
DD 79 872 1074
DD 80 492 1270
DD 81 386 382
DD 82 804 622
DD 83 554 328
DD 84 386 464
DD 85 1112 0
DD 86 804 1074
DD 87 168 162
DD 88 32 460
DD 89 314 1194
DD 90 554 382
DD 91 596 1270
DD 92 0 1128
DD 93 146 618
DD 94 518 1074
DD 95 66 726
DD 96 596 1028
DD 97 168 110
DD 98 492 1036
DD 99 1112 106
DD 100 146 726
DD 101 1112 1074
DD 102 0 270
DD 103 804 830
DD 104 316 464
DD 105 452 550
DD 106 226 726
DD 107 32 328
DD 108 740 664
DD 109 400 382
DD 110 748 464
DD 111 146 858
DD 112 748 484
DD 113 562 904
DD 114 872 622
DD 115 80 1036
DD 116 912 382
DD 117 1112 904
DD 118 168 152
DD 119 930 1128
DD 120 804 1270
DD 121 284 776
DD 122 0 1194
DD 123 150 1028
DD 124 742 252
DD 125 0 328
DD 126 88 270
DD 127 334 0
DD 128 316 328
DD 129 220 152
DD 130 554 252
DD 131 226 734
DD 132 554 152
DD 133 930 904
DD 134 280 1270
DD 135 238 734
DD 136 804 574
DD 137 554 106
DD 138 284 838
DD 139 912 464
DD 140 334 484
DD 141 20 646
DD 142 492 904
DD 143 80 776
DD 144 386 0
DD 145 640 838
DD 146 0 1270
DD 147 314 1270
DD 148 872 830
DD 149 400 0
DD 150 872 1270
DD 151 640 904
DD 152 596 1074
DD 153 1112 152
DD 154 220 252
DD 155 88 162
DD 156 702 650
DD 157 912 252
DD 158 930 422
DD 159 80 646
DD 160 930 664
DD 161 492 838
DD 162 466 664
DD 163 150 1128
DD 164 492 1006
DD 165 238 904
DD 166 316 484
DD 167 730 830
DD 168 280 960
DD 169 88 212
DD 170 238 646
DD 171 20 734
DD 172 386 328
DD 173 20 776
DD 174 872 382
DD 175 0 460
DD 176 630 783
DD 177 400 556
DD 178 220 328
DD 179 168 252
DD 180 554 484
DD 181 740 650
DD 182 238 484
DD 183 80 908
DD 184 930 1270
DD 185 80 734
DD 186 314 904
DD 187 12 784
DD 188 1112 1128
DD 189 872 484
DD 190 238 908
DD 191 150 1006
DD 192 386 162
DD 193 314 960
DD 194 804 1128
DD 195 238 838
DD 196 872 152
DD 197 748 382
DD 198 702 382
DD 199 640 830
DD 200 740 574
DD 201 554 0
DD 202 804 664
DD 203 334 382
DD 204 146 734
DD 205 400 152
DD 206 702 664
DD 207 220 460
DD 208 146 776
DD 209 316 162
DD 210 400 464
DD 211 684 904
DD 212 220 484
DD 213 492 908
DD 214 692 830
DD 215 314 1128
DD 216 146 908
DD 217 930 650
DD 218 554 162
DD 219 88 194
DD 220 66 784
DD 221 872 252
DD 222 400 106
DD 223 0 618
DD 224 226 646
DD 225 492 1194
DD 226 150 960
DD 227 20 784
DD 228 466 904
DD 229 84 162
DD 230 912 152
DD 231 918 106
DD 232 466 838
DD 233 150 1036
DD 234 872 1128
DD 235 400 328
DD 236 492 708
DD 237 400 484
DD 238 20 618
DD 239 280 1036
DD 240 284 904
DD 241 1112 622
DD 242 284 734
DD 243 918 152
DD 244 1112 830
DD 245 730 664
DD 246 872 464
DD 247 725 904
DD 248 314 1036
DD 249 872 574
DD 250 492 1128
DD 251 872 904
DD 252 238 776
DD 253 400 550
DD 254 150 908
DD 255 80 1128
DD 256 492 776
DD 257 630 708
DD 258 316 382
DD 259 314 776
DD 260 334 464
DD 261 150 1194
DD 262 492 1028
DD 263 702 574
DD 264 684 1128
DD 265 466 708
DD 266 684 1074
DD 267 804 650
DD 268 80 726
DD 269 640 664
DD 270 466 908
DD 271 912 422
DD 272 220 110
DD 273 150 1270
DD 274 748 0
DD 275 640 708
DD 276 80 1270
DD 277 466 676
DD 278 80 1194
DD 279 1112 422
DD 280 466 776
DD 281 1112 664
DD 282 220 162
DD 283 0 784
DD 284 146 328
DD 285 66 734
DD 286 1112 252
DD 287 80 618
DD 288 730 904
DD 289 930 464
DD 290 314 1028
DD 291 630 838
DD 292 146 460
DD 293 146 484
DD 294 554 664
DD 295 804 904
DD 296 554 464
DD 297 452 664
DD 298 316 110
DD 299 740 830
DD 300 146 646
DD 301 872 664
DD 302 748 106
DD 303 0 858
DD 304 80 858
DD 305 1112 464
DD 306 32 212
DD 307 334 162
DD 308 146 784
DD 309 314 838
DD 310 518 1065
DD 311 740 622
END

EOF
